p cnf 289 1
289 0
w 1 0.809478
w 2 1 1
w 2 -1 0
w 3 2 0.264164
w 3 -2 0.271081
w 4 3 0.514381
w 4 -3 0.586957
w 5 4 0.41107
w 5 -4 0.51929
w 6 5 0.48215
w 6 -5 0.317442
w 7 6 1
w 7 -6 0
w 8 7 0.437529
w 8 -7 0.0532501
w 9 8 1
w 9 -8 0
w 10 9 1
w 10 -9 0
w 11 10 1
w 11 -10 0
w 12 11 0.234584
w 12 -11 0.540083
w 13 12 1
w 13 -12 0
w 14 13 0
w 14 -13 1
w 15 14 0
w 15 -14 1
w 16 15 0.458688
w 16 -15 0.0303266
w 17 16 0
w 17 -16 1
w 18 1 0.612955
w 18 -1 0.564935
w 19 18 2 0.0951047
w 19 18 -2 0.882377
w 19 -18 2 0.875588
w 19 -18 -2 0.786661
w 20 19 3 0
w 20 19 -3 0
w 20 -19 3 0
w 20 -19 -3 1
w 21 20 4 0.201655
w 21 20 -4 0.616171
w 21 -20 4 0.759335
w 21 -20 -4 0.436239
w 22 21 5 0
w 22 21 -5 0
w 22 -21 5 1
w 22 -21 -5 0
w 23 22 6 0.144311
w 23 22 -6 0.0491017
w 23 -22 6 0.814748
w 23 -22 -6 0.346196
w 24 23 7 1
w 24 23 -7 0
w 24 -23 7 0
w 24 -23 -7 1
w 25 24 8 0
w 25 24 -8 1
w 25 -24 8 1
w 25 -24 -8 1
w 26 25 9 0.680826
w 26 25 -9 0.590948
w 26 -25 9 0.700004
w 26 -25 -9 0.853597
w 27 26 10 0
w 27 26 -10 0
w 27 -26 10 0
w 27 -26 -10 1
w 28 27 11 0.151341
w 28 27 -11 0.740704
w 28 -27 11 0.131836
w 28 -27 -11 0.608148
w 29 28 12 0
w 29 28 -12 0
w 29 -28 12 0
w 29 -28 -12 1
w 30 29 13 1
w 30 29 -13 1
w 30 -29 13 0
w 30 -29 -13 1
w 31 30 14 1
w 31 30 -14 1
w 31 -30 14 1
w 31 -30 -14 0
w 32 31 15 0.281695
w 32 31 -15 0.963286
w 32 -31 15 0.4874
w 32 -31 -15 0.640232
w 33 32 16 0.957168
w 33 32 -16 0.758104
w 33 -32 16 0.202843
w 33 -32 -16 0.58319
w 34 33 17 0.943548
w 34 33 -17 0.715027
w 34 -33 17 0.517593
w 34 -33 -17 0.274666
w 35 18 0.270052
w 35 -18 0.654885
w 36 35 19 1
w 36 35 -19 0
w 36 -35 19 0
w 36 -35 -19 0
w 37 36 20 1
w 37 36 -20 0
w 37 -36 20 1
w 37 -36 -20 0
w 38 37 21 0
w 38 37 -21 1
w 38 -37 21 1
w 38 -37 -21 1
w 39 38 22 0.61275
w 39 38 -22 0.553881
w 39 -38 22 0.611763
w 39 -38 -22 0.569918
w 40 39 23 1
w 40 39 -23 1
w 40 -39 23 0
w 40 -39 -23 1
w 41 40 24 0.739024
w 41 40 -24 0.0328195
w 41 -40 24 0.49942
w 41 -40 -24 0.009076
w 42 41 25 0.861711
w 42 41 -25 0.377783
w 42 -41 25 0.817556
w 42 -41 -25 0.765693
w 43 42 26 0.0820567
w 43 42 -26 0.763799
w 43 -42 26 0.342867
w 43 -42 -26 0.023265
w 44 43 27 0
w 44 43 -27 0
w 44 -43 27 0
w 44 -43 -27 1
w 45 44 28 0.814399
w 45 44 -28 0.572516
w 45 -44 28 0.12275
w 45 -44 -28 0.426162
w 46 45 29 1
w 46 45 -29 0
w 46 -45 29 0
w 46 -45 -29 1
w 47 46 30 0.163678
w 47 46 -30 0.39519
w 47 -46 30 0.0317416
w 47 -46 -30 0.663098
w 48 47 31 1
w 48 47 -31 0
w 48 -47 31 0
w 48 -47 -31 1
w 49 48 32 0
w 49 48 -32 1
w 49 -48 32 1
w 49 -48 -32 0
w 50 49 33 0.338352
w 50 49 -33 0.763625
w 50 -49 33 0.297544
w 50 -49 -33 0.405933
w 51 50 34 0.866412
w 51 50 -34 0.220332
w 51 -50 34 0.295906
w 51 -50 -34 0.989162
w 52 35 0.438341
w 52 -35 0.423898
w 53 52 36 0.733883
w 53 52 -36 0.0800638
w 53 -52 36 0.886185
w 53 -52 -36 0.897561
w 54 53 37 1
w 54 53 -37 1
w 54 -53 37 0
w 54 -53 -37 0
w 55 54 38 1
w 55 54 -38 0
w 55 -54 38 1
w 55 -54 -38 1
w 56 55 39 0.430272
w 56 55 -39 0.177121
w 56 -55 39 0.435759
w 56 -55 -39 0.768624
w 57 56 40 0.733303
w 57 56 -40 0.174557
w 57 -56 40 0.664136
w 57 -56 -40 0.599715
w 58 57 41 1
w 58 57 -41 0
w 58 -57 41 1
w 58 -57 -41 1
w 59 58 42 1
w 59 58 -42 1
w 59 -58 42 0
w 59 -58 -42 0
w 60 59 43 0
w 60 59 -43 1
w 60 -59 43 1
w 60 -59 -43 1
w 61 60 44 0.109181
w 61 60 -44 0.544504
w 61 -60 44 0.0519251
w 61 -60 -44 0.357093
w 62 61 45 0
w 62 61 -45 0
w 62 -61 45 1
w 62 -61 -45 0
w 63 62 46 0
w 63 62 -46 1
w 63 -62 46 1
w 63 -62 -46 0
w 64 63 47 0.0991393
w 64 63 -47 0.695594
w 64 -63 47 0.86165
w 64 -63 -47 0.497523
w 65 64 48 0.790296
w 65 64 -48 0.62979
w 65 -64 48 0.801208
w 65 -64 -48 0.605126
w 66 65 49 0.369301
w 66 65 -49 0.337883
w 66 -65 49 0.250104
w 66 -65 -49 0.816913
w 67 66 50 0.926059
w 67 66 -50 0.926094
w 67 -66 50 0.252517
w 67 -66 -50 0.977984
w 68 67 51 1
w 68 67 -51 1
w 68 -67 51 0
w 68 -67 -51 0
w 69 52 0.292361
w 69 -52 0.871155
w 70 69 53 1
w 70 69 -53 0
w 70 -69 53 0
w 70 -69 -53 1
w 71 70 54 0.818297
w 71 70 -54 0.0281192
w 71 -70 54 0.381834
w 71 -70 -54 0.608593
w 72 71 55 0.183042
w 72 71 -55 0.21372
w 72 -71 55 0.317526
w 72 -71 -55 0.552342
w 73 72 56 0.567631
w 73 72 -56 0.369255
w 73 -72 56 0.259615
w 73 -72 -56 0.49369
w 74 73 57 0
w 74 73 -57 1
w 74 -73 57 0
w 74 -73 -57 1
w 75 74 58 0.395936
w 75 74 -58 0.466741
w 75 -74 58 0.642859
w 75 -74 -58 0.688297
w 76 75 59 1
w 76 75 -59 0
w 76 -75 59 0
w 76 -75 -59 0
w 77 76 60 0.989232
w 77 76 -60 0.554184
w 77 -76 60 0.678469
w 77 -76 -60 0.371065
w 78 77 61 0
w 78 77 -61 0
w 78 -77 61 1
w 78 -77 -61 0
w 79 78 62 1
w 79 78 -62 0
w 79 -78 62 0
w 79 -78 -62 1
w 80 79 63 0.771054
w 80 79 -63 0.699846
w 80 -79 63 0.1869
w 80 -79 -63 0.34959
w 81 80 64 0.118757
w 81 80 -64 0.745526
w 81 -80 64 0.269175
w 81 -80 -64 0.761616
w 82 81 65 1
w 82 81 -65 1
w 82 -81 65 0
w 82 -81 -65 0
w 83 82 66 0
w 83 82 -66 1
w 83 -82 66 0
w 83 -82 -66 1
w 84 83 67 1
w 84 83 -67 0
w 84 -83 67 1
w 84 -83 -67 0
w 85 84 68 0.943691
w 85 84 -68 0.298299
w 85 -84 68 0.0942155
w 85 -84 -68 0.419395
w 86 69 0
w 86 -69 1
w 87 86 70 1
w 87 86 -70 0
w 87 -86 70 0
w 87 -86 -70 1
w 88 87 71 0
w 88 87 -71 1
w 88 -87 71 1
w 88 -87 -71 0
w 89 88 72 0.417569
w 89 88 -72 0.272965
w 89 -88 72 0.787375
w 89 -88 -72 0.694311
w 90 89 73 0
w 90 89 -73 1
w 90 -89 73 1
w 90 -89 -73 1
w 91 90 74 0.578064
w 91 90 -74 0.81982
w 91 -90 74 0.889139
w 91 -90 -74 0.450744
w 92 91 75 0.187438
w 92 91 -75 0.544959
w 92 -91 75 0.182906
w 92 -91 -75 0.673451
w 93 92 76 0
w 93 92 -76 1
w 93 -92 76 0
w 93 -92 -76 0
w 94 93 77 0.465841
w 94 93 -77 0.198958
w 94 -93 77 0.105069
w 94 -93 -77 0.342555
w 95 94 78 0.969606
w 95 94 -78 0.760124
w 95 -94 78 0.191311
w 95 -94 -78 0.756981
w 96 95 79 1
w 96 95 -79 0
w 96 -95 79 1
w 96 -95 -79 0
w 97 96 80 0
w 97 96 -80 1
w 97 -96 80 0
w 97 -96 -80 0
w 98 97 81 1
w 98 97 -81 1
w 98 -97 81 1
w 98 -97 -81 0
w 99 98 82 1
w 99 98 -82 0
w 99 -98 82 1
w 99 -98 -82 1
w 100 99 83 0
w 100 99 -83 1
w 100 -99 83 0
w 100 -99 -83 1
w 101 100 84 0
w 101 100 -84 1
w 101 -100 84 1
w 101 -100 -84 1
w 102 101 85 1
w 102 101 -85 0
w 102 -101 85 1
w 102 -101 -85 1
w 103 86 0.807639
w 103 -86 0.101855
w 104 103 87 0.195389
w 104 103 -87 0.158153
w 104 -103 87 0.963794
w 104 -103 -87 0.770578
w 105 104 88 0.169035
w 105 104 -88 0.019218
w 105 -104 88 0.715069
w 105 -104 -88 0.747631
w 106 105 89 1
w 106 105 -89 1
w 106 -105 89 0
w 106 -105 -89 1
w 107 106 90 0.14334
w 107 106 -90 0.908506
w 107 -106 90 0.539863
w 107 -106 -90 0.173566
w 108 107 91 0.340468
w 108 107 -91 0.960773
w 108 -107 91 0.112781
w 108 -107 -91 0.809275
w 109 108 92 1
w 109 108 -92 1
w 109 -108 92 0
w 109 -108 -92 1
w 110 109 93 0
w 110 109 -93 0
w 110 -109 93 0
w 110 -109 -93 1
w 111 110 94 1
w 111 110 -94 1
w 111 -110 94 0
w 111 -110 -94 1
w 112 111 95 0.3418
w 112 111 -95 0.0615326
w 112 -111 95 0.94858
w 112 -111 -95 0.424519
w 113 112 96 0.879149
w 113 112 -96 0.567859
w 113 -112 96 0.763749
w 113 -112 -96 0.419011
w 114 113 97 0.547175
w 114 113 -97 0.759479
w 114 -113 97 0.702199
w 114 -113 -97 0.659956
w 115 114 98 0.906604
w 115 114 -98 0.0817636
w 115 -114 98 0.874329
w 115 -114 -98 0.793644
w 116 115 99 0
w 116 115 -99 0
w 116 -115 99 0
w 116 -115 -99 1
w 117 116 100 1
w 117 116 -100 0
w 117 -116 100 0
w 117 -116 -100 1
w 118 117 101 1
w 118 117 -101 1
w 118 -117 101 0
w 118 -117 -101 1
w 119 118 102 1
w 119 118 -102 1
w 119 -118 102 0
w 119 -118 -102 0
w 120 103 1
w 120 -103 0
w 121 120 104 0
w 121 120 -104 0
w 121 -120 104 1
w 121 -120 -104 0
w 122 121 105 1
w 122 121 -105 0
w 122 -121 105 0
w 122 -121 -105 0
w 123 122 106 0
w 123 122 -106 1
w 123 -122 106 1
w 123 -122 -106 1
w 124 123 107 0.0364893
w 124 123 -107 0.306623
w 124 -123 107 0.0478577
w 124 -123 -107 0.121215
w 125 124 108 0.321787
w 125 124 -108 0.154522
w 125 -124 108 0.706925
w 125 -124 -108 0.45096
w 126 125 109 1
w 126 125 -109 0
w 126 -125 109 1
w 126 -125 -109 1
w 127 126 110 0.489389
w 127 126 -110 0.332783
w 127 -126 110 0.884031
w 127 -126 -110 0.149089
w 128 127 111 1
w 128 127 -111 0
w 128 -127 111 1
w 128 -127 -111 1
w 129 128 112 1
w 129 128 -112 0
w 129 -128 112 1
w 129 -128 -112 0
w 130 129 113 0.730919
w 130 129 -113 0.2551
w 130 -129 113 0.0453479
w 130 -129 -113 0.852135
w 131 130 114 0
w 131 130 -114 0
w 131 -130 114 0
w 131 -130 -114 1
w 132 131 115 1
w 132 131 -115 1
w 132 -131 115 0
w 132 -131 -115 1
w 133 132 116 0.961467
w 133 132 -116 0.685408
w 133 -132 116 0.829988
w 133 -132 -116 0.110556
w 134 133 117 0.895835
w 134 133 -117 0.793674
w 134 -133 117 0.63611
w 134 -133 -117 0.454709
w 135 134 118 1
w 135 134 -118 0
w 135 -134 118 0
w 135 -134 -118 0
w 136 135 119 0
w 136 135 -119 1
w 136 -135 119 1
w 136 -135 -119 0
w 137 120 0.495846
w 137 -120 0.86458
w 138 137 121 0.252385
w 138 137 -121 0.682676
w 138 -137 121 0.0275915
w 138 -137 -121 0.19612
w 139 138 122 0.499669
w 139 138 -122 0.548744
w 139 -138 122 0.79061
w 139 -138 -122 0.461137
w 140 139 123 1
w 140 139 -123 0
w 140 -139 123 0
w 140 -139 -123 0
w 141 140 124 1
w 141 140 -124 0
w 141 -140 124 1
w 141 -140 -124 0
w 142 141 125 1
w 142 141 -125 0
w 142 -141 125 1
w 142 -141 -125 0
w 143 142 126 0.851159
w 143 142 -126 0.0620928
w 143 -142 126 0.795481
w 143 -142 -126 0.347004
w 144 143 127 0.749439
w 144 143 -127 0.59939
w 144 -143 127 0.609349
w 144 -143 -127 0.77703
w 145 144 128 0.454003
w 145 144 -128 0.2767
w 145 -144 128 0.344253
w 145 -144 -128 0.244613
w 146 145 129 0.578404
w 146 145 -129 0.865212
w 146 -145 129 0.30953
w 146 -145 -129 0.661244
w 147 146 130 1
w 147 146 -130 1
w 147 -146 130 1
w 147 -146 -130 0
w 148 147 131 0.566584
w 148 147 -131 0.445391
w 148 -147 131 0.521975
w 148 -147 -131 0.971512
w 149 148 132 0
w 149 148 -132 1
w 149 -148 132 1
w 149 -148 -132 0
w 150 149 133 1
w 150 149 -133 0
w 150 -149 133 0
w 150 -149 -133 1
w 151 150 134 0.564574
w 151 150 -134 0.0621571
w 151 -150 134 0.968806
w 151 -150 -134 0.908827
w 152 151 135 1
w 152 151 -135 0
w 152 -151 135 0
w 152 -151 -135 1
w 153 152 136 1
w 153 152 -136 0
w 153 -152 136 0
w 153 -152 -136 1
w 154 137 0
w 154 -137 1
w 155 154 138 1
w 155 154 -138 0
w 155 -154 138 0
w 155 -154 -138 1
w 156 155 139 1
w 156 155 -139 0
w 156 -155 139 1
w 156 -155 -139 1
w 157 156 140 0.270473
w 157 156 -140 0.205923
w 157 -156 140 0.158429
w 157 -156 -140 0.962579
w 158 157 141 0.220586
w 158 157 -141 0.931385
w 158 -157 141 0.679324
w 158 -157 -141 0.527357
w 159 158 142 0.166556
w 159 158 -142 0.699339
w 159 -158 142 0.6542
w 159 -158 -142 0.315031
w 160 159 143 0
w 160 159 -143 1
w 160 -159 143 1
w 160 -159 -143 0
w 161 160 144 0
w 161 160 -144 1
w 161 -160 144 1
w 161 -160 -144 0
w 162 161 145 0
w 162 161 -145 1
w 162 -161 145 1
w 162 -161 -145 1
w 163 162 146 0.419562
w 163 162 -146 0.776563
w 163 -162 146 0.986855
w 163 -162 -146 0.577991
w 164 163 147 0.757352
w 164 163 -147 0.798577
w 164 -163 147 0.670526
w 164 -163 -147 0.436677
w 165 164 148 0
w 165 164 -148 1
w 165 -164 148 1
w 165 -164 -148 1
w 166 165 149 1
w 166 165 -149 1
w 166 -165 149 0
w 166 -165 -149 1
w 167 166 150 0.0699978
w 167 166 -150 0.515679
w 167 -166 150 0.864226
w 167 -166 -150 0.146889
w 168 167 151 0.0149192
w 168 167 -151 0.490962
w 168 -167 151 0.702782
w 168 -167 -151 0.521009
w 169 168 152 1
w 169 168 -152 0
w 169 -168 152 0
w 169 -168 -152 1
w 170 169 153 0
w 170 169 -153 0
w 170 -169 153 1
w 170 -169 -153 1
w 171 154 0.0157938
w 171 -154 0.0560098
w 172 171 155 0.978548
w 172 171 -155 0.974273
w 172 -171 155 0.128357
w 172 -171 -155 0.28657
w 173 172 156 0.565975
w 173 172 -156 0.963771
w 173 -172 156 0.639528
w 173 -172 -156 0.635973
w 174 173 157 0
w 174 173 -157 1
w 174 -173 157 0
w 174 -173 -157 0
w 175 174 158 0
w 175 174 -158 0
w 175 -174 158 0
w 175 -174 -158 1
w 176 175 159 0.838407
w 176 175 -159 0.373968
w 176 -175 159 0.820567
w 176 -175 -159 0.337319
w 177 176 160 0
w 177 176 -160 0
w 177 -176 160 0
w 177 -176 -160 1
w 178 177 161 0
w 178 177 -161 0
w 178 -177 161 1
w 178 -177 -161 1
w 179 178 162 0.325891
w 179 178 -162 0.679391
w 179 -178 162 0.342589
w 179 -178 -162 0.805341
w 180 179 163 1
w 180 179 -163 1
w 180 -179 163 0
w 180 -179 -163 1
w 181 180 164 1
w 181 180 -164 1
w 181 -180 164 1
w 181 -180 -164 0
w 182 181 165 0.110491
w 182 181 -165 0.452723
w 182 -181 165 0.570025
w 182 -181 -165 0.44781
w 183 182 166 0.84337
w 183 182 -166 0.609976
w 183 -182 166 0.630932
w 183 -182 -166 0.172724
w 184 183 167 0.706482
w 184 183 -167 0.476351
w 184 -183 167 0.7629
w 184 -183 -167 0.0686014
w 185 184 168 0.469516
w 185 184 -168 0.394492
w 185 -184 168 0.195606
w 185 -184 -168 0.812105
w 186 185 169 0
w 186 185 -169 1
w 186 -185 169 0
w 186 -185 -169 1
w 187 186 170 0
w 187 186 -170 0
w 187 -186 170 1
w 187 -186 -170 1
w 188 171 0.0312784
w 188 -171 0.834708
w 189 188 172 0
w 189 188 -172 1
w 189 -188 172 1
w 189 -188 -172 1
w 190 189 173 0.518412
w 190 189 -173 0.617397
w 190 -189 173 0.514753
w 190 -189 -173 0.224894
w 191 190 174 1
w 191 190 -174 0
w 191 -190 174 1
w 191 -190 -174 0
w 192 191 175 0.805568
w 192 191 -175 0.559275
w 192 -191 175 0.887821
w 192 -191 -175 0.184319
w 193 192 176 1
w 193 192 -176 1
w 193 -192 176 0
w 193 -192 -176 1
w 194 193 177 0
w 194 193 -177 0
w 194 -193 177 1
w 194 -193 -177 1
w 195 194 178 1
w 195 194 -178 0
w 195 -194 178 0
w 195 -194 -178 0
w 196 195 179 1
w 196 195 -179 0
w 196 -195 179 0
w 196 -195 -179 1
w 197 196 180 0.903878
w 197 196 -180 0.184414
w 197 -196 180 0.265614
w 197 -196 -180 0.51384
w 198 197 181 0.953602
w 198 197 -181 0.319408
w 198 -197 181 0.490858
w 198 -197 -181 0.841423
w 199 198 182 0.987688
w 199 198 -182 0.0473623
w 199 -198 182 0.768616
w 199 -198 -182 0.821346
w 200 199 183 0.855575
w 200 199 -183 0.936825
w 200 -199 183 0.0877219
w 200 -199 -183 0.84336
w 201 200 184 0
w 201 200 -184 1
w 201 -200 184 0
w 201 -200 -184 0
w 202 201 185 1
w 202 201 -185 1
w 202 -201 185 0
w 202 -201 -185 0
w 203 202 186 1
w 203 202 -186 1
w 203 -202 186 0
w 203 -202 -186 0
w 204 203 187 0
w 204 203 -187 1
w 204 -203 187 1
w 204 -203 -187 1
w 205 188 0
w 205 -188 1
w 206 205 189 0
w 206 205 -189 1
w 206 -205 189 1
w 206 -205 -189 1
w 207 206 190 1
w 207 206 -190 0
w 207 -206 190 0
w 207 -206 -190 1
w 208 207 191 0
w 208 207 -191 0
w 208 -207 191 1
w 208 -207 -191 1
w 209 208 192 1
w 209 208 -192 0
w 209 -208 192 1
w 209 -208 -192 0
w 210 209 193 0.833157
w 210 209 -193 0.220435
w 210 -209 193 0.948599
w 210 -209 -193 0.185223
w 211 210 194 0.658452
w 211 210 -194 0.378712
w 211 -210 194 0.867431
w 211 -210 -194 0.355994
w 212 211 195 0.71141
w 212 211 -195 0.874881
w 212 -211 195 0.565849
w 212 -211 -195 0.410964
w 213 212 196 0
w 213 212 -196 1
w 213 -212 196 1
w 213 -212 -196 0
w 214 213 197 0.240828
w 214 213 -197 0.0815361
w 214 -213 197 0.822596
w 214 -213 -197 0.636143
w 215 214 198 0
w 215 214 -198 0
w 215 -214 198 0
w 215 -214 -198 1
w 216 215 199 0.592525
w 216 215 -199 0.39229
w 216 -215 199 0.0546091
w 216 -215 -199 0.541124
w 217 216 200 0.846678
w 217 216 -200 0.199577
w 217 -216 200 0.956225
w 217 -216 -200 0.714109
w 218 217 201 0.575789
w 218 217 -201 0.425519
w 218 -217 201 0.430451
w 218 -217 -201 0.141638
w 219 218 202 0.761045
w 219 218 -202 0.741493
w 219 -218 202 0.79036
w 219 -218 -202 0.630934
w 220 219 203 0.471844
w 220 219 -203 0.871762
w 220 -219 203 0.76161
w 220 -219 -203 0.29444
w 221 220 204 0.18234
w 221 220 -204 0.418879
w 221 -220 204 0.373871
w 221 -220 -204 0.0452614
w 222 205 0.208045
w 222 -205 0.637787
w 223 222 206 0
w 223 222 -206 1
w 223 -222 206 0
w 223 -222 -206 0
w 224 223 207 0.823442
w 224 223 -207 0.934058
w 224 -223 207 0.479828
w 224 -223 -207 0.248961
w 225 224 208 0
w 225 224 -208 0
w 225 -224 208 1
w 225 -224 -208 0
w 226 225 209 0.756489
w 226 225 -209 0.0430325
w 226 -225 209 0.347648
w 226 -225 -209 0.628251
w 227 226 210 0.642088
w 227 226 -210 0.136156
w 227 -226 210 0.986982
w 227 -226 -210 0.0609676
w 228 227 211 0.0322432
w 228 227 -211 0.0389792
w 228 -227 211 0.718072
w 228 -227 -211 0.67003
w 229 228 212 1
w 229 228 -212 0
w 229 -228 212 0
w 229 -228 -212 1
w 230 229 213 1
w 230 229 -213 1
w 230 -229 213 1
w 230 -229 -213 0
w 231 230 214 0.362428
w 231 230 -214 0.247906
w 231 -230 214 0.651551
w 231 -230 -214 0.725387
w 232 231 215 0
w 232 231 -215 1
w 232 -231 215 1
w 232 -231 -215 1
w 233 232 216 1
w 233 232 -216 0
w 233 -232 216 0
w 233 -232 -216 1
w 234 233 217 0.213394
w 234 233 -217 0.400545
w 234 -233 217 0.262316
w 234 -233 -217 0.622674
w 235 234 218 1
w 235 234 -218 1
w 235 -234 218 0
w 235 -234 -218 1
w 236 235 219 0
w 236 235 -219 0
w 236 -235 219 1
w 236 -235 -219 1
w 237 236 220 0
w 237 236 -220 1
w 237 -236 220 0
w 237 -236 -220 1
w 238 237 221 0.0857621
w 238 237 -221 0.838097
w 238 -237 221 0.390269
w 238 -237 -221 0.122053
w 239 222 0
w 239 -222 1
w 240 239 223 1
w 240 239 -223 0
w 240 -239 223 0
w 240 -239 -223 1
w 241 240 224 0.377517
w 241 240 -224 0.825804
w 241 -240 224 0.5142
w 241 -240 -224 0.758788
w 242 241 225 0.493968
w 242 241 -225 0.230118
w 242 -241 225 0.275748
w 242 -241 -225 0.73487
w 243 242 226 0.775922
w 243 242 -226 0.716735
w 243 -242 226 0.162243
w 243 -242 -226 0.802092
w 244 243 227 0
w 244 243 -227 1
w 244 -243 227 1
w 244 -243 -227 1
w 245 244 228 0.968802
w 245 244 -228 0.266623
w 245 -244 228 0.687629
w 245 -244 -228 0.37996
w 246 245 229 0.982128
w 246 245 -229 0.351161
w 246 -245 229 0.448471
w 246 -245 -229 0.9591
w 247 246 230 0.339997
w 247 246 -230 0.336617
w 247 -246 230 0.740453
w 247 -246 -230 0.854196
w 248 247 231 1
w 248 247 -231 0
w 248 -247 231 1
w 248 -247 -231 0
w 249 248 232 1
w 249 248 -232 0
w 249 -248 232 0
w 249 -248 -232 0
w 250 249 233 0.860796
w 250 249 -233 0.0601593
w 250 -249 233 0.0110898
w 250 -249 -233 0.9915
w 251 250 234 0.576666
w 251 250 -234 0.960301
w 251 -250 234 0.203136
w 251 -250 -234 0.264295
w 252 251 235 0
w 252 251 -235 0
w 252 -251 235 1
w 252 -251 -235 1
w 253 252 236 1
w 253 252 -236 1
w 253 -252 236 0
w 253 -252 -236 0
w 254 253 237 0.637545
w 254 253 -237 0.0240387
w 254 -253 237 0.964305
w 254 -253 -237 0.963069
w 255 254 238 0.0473397
w 255 254 -238 0.903542
w 255 -254 238 0.706484
w 255 -254 -238 0.847109
w 256 239 0
w 256 -239 1
w 257 256 240 0.0664172
w 257 256 -240 0.24885
w 257 -256 240 0.699405
w 257 -256 -240 0.00293033
w 258 257 241 0.659706
w 258 257 -241 0.206067
w 258 -257 241 0.0898104
w 258 -257 -241 0.999968
w 259 258 242 0
w 259 258 -242 0
w 259 -258 242 0
w 259 -258 -242 1
w 260 259 243 1
w 260 259 -243 1
w 260 -259 243 0
w 260 -259 -243 0
w 261 260 244 0.668025
w 261 260 -244 0.94388
w 261 -260 244 0.684511
w 261 -260 -244 0.645326
w 262 261 245 0.588053
w 262 261 -245 0.35181
w 262 -261 245 0.838329
w 262 -261 -245 0.594311
w 263 262 246 0.546234
w 263 262 -246 0.660728
w 263 -262 246 0.83842
w 263 -262 -246 0.245639
w 264 263 247 0.663936
w 264 263 -247 0.905345
w 264 -263 247 0.869725
w 264 -263 -247 0.753746
w 265 264 248 0.049268
w 265 264 -248 0.0899796
w 265 -264 248 0.596703
w 265 -264 -248 0.650759
w 266 265 249 0.894165
w 266 265 -249 0.0141938
w 266 -265 249 0.715633
w 266 -265 -249 0.538152
w 267 266 250 0.437075
w 267 266 -250 0.206177
w 267 -266 250 0.93765
w 267 -266 -250 0.121586
w 268 267 251 0.92887
w 268 267 -251 0.709639
w 268 -267 251 0.203314
w 268 -267 -251 0.767199
w 269 268 252 0
w 269 268 -252 1
w 269 -268 252 1
w 269 -268 -252 1
w 270 269 253 0.628336
w 270 269 -253 0.29524
w 270 -269 253 0.464417
w 270 -269 -253 0.498061
w 271 270 254 0
w 271 270 -254 1
w 271 -270 254 0
w 271 -270 -254 0
w 272 271 255 1
w 272 271 -255 1
w 272 -271 255 0
w 272 -271 -255 0
w 273 256 0
w 273 -256 1
w 274 273 257 0.604925
w 274 273 -257 0.143701
w 274 -273 257 0.0449973
w 274 -273 -257 0.456428
w 275 274 258 1
w 275 274 -258 1
w 275 -274 258 1
w 275 -274 -258 0
w 276 275 259 0
w 276 275 -259 1
w 276 -275 259 1
w 276 -275 -259 1
w 277 276 260 0.37917
w 277 276 -260 0.176691
w 277 -276 260 0.149662
w 277 -276 -260 0.428157
w 278 277 261 0.696991
w 278 277 -261 0.567123
w 278 -277 261 0.512852
w 278 -277 -261 0.895079
w 279 278 262 1
w 279 278 -262 0
w 279 -278 262 0
w 279 -278 -262 0
w 280 279 263 0
w 280 279 -263 0
w 280 -279 263 0
w 280 -279 -263 1
w 281 280 264 0.529683
w 281 280 -264 0.547205
w 281 -280 264 0.493291
w 281 -280 -264 0.369453
w 282 281 265 0.945917
w 282 281 -265 0.522656
w 282 -281 265 0.629056
w 282 -281 -265 0.0298469
w 283 282 266 0
w 283 282 -266 1
w 283 -282 266 1
w 283 -282 -266 0
w 284 283 267 0.958042
w 284 283 -267 0.127309
w 284 -283 267 0.404297
w 284 -283 -267 0.470894
w 285 284 268 1
w 285 284 -268 1
w 285 -284 268 1
w 285 -284 -268 0
w 286 285 269 1
w 286 285 -269 1
w 286 -285 269 0
w 286 -285 -269 0
w 287 286 270 0.429954
w 287 286 -270 0.653627
w 287 -286 270 0.320499
w 287 -286 -270 0.799407
w 288 287 271 0
w 288 287 -271 0
w 288 -287 271 1
w 288 -287 -271 0
w 289 288 272 0.169131
w 289 288 -272 0.70528
w 289 -288 272 0.968614
w 289 -288 -272 0.599449